
(set-logic ALL) 

(declare-datatype MyList ((Nil) (Cons (head Real) (tail MyList)) )) 
(declare-fun l0 () MyList) 
(declare-fun l1 () MyList) 
(declare-fun l2 () MyList) 
(declare-fun l3 () MyList) 
(declare-fun i0 () Real) 
(declare-fun i1 () Real) 
(assert (is-Nil Nil) )
(assert (= l2 l1) )
(assert (and (is-Nil Nil) (is-Nil Nil) (= l0 l3) (is-Cons l0)) )
(assert (and (is-Cons Nil) (= l2 l2) (= l3 Nil)) )
(assert (= l0 l1) )
(assert (or (= l2 Nil) (= l3 Nil) (= l3 l2) (is-Cons Nil)) )
(assert (or (= l1 Nil) (= l1 Nil)) )
(assert (and (is-Cons Nil) (= l1 l0)) )
(check-sat)
